Maximize
  x_mechanical + x_standard_keyboards
Subject To
  c1: x_mechanical - 5.0 x_standard_keyboards >= 0
  c2: x_standard_keyboards >= 30
  c3: 5 x_mechanical + 2 x_standard_keyboards <= 1000
  c4: 2 x_mechanical + x_standard_keyboards <= 250
End